NAME : cvrp-A-U-8-13.1091.tour
COMMENT : Length = 1091
COMMENT : Found by LKH [Keld Helsgaun] Thu May 17 22:42:39 2018
TYPE : TOUR
DIMENSION : 31
TOUR_SECTION
1
14
10
15
2
9
7
12
13
18
28
17
29
27
20
21
26
25
31
24
23
22
6
3
4
8
11
16
5
19
30
-1
EOF
